decision_x1=[0,4];
decision_x2=[0,4];
decision_x3=[0,4];
decision_x4=[0,4];
decision_x5=[0,4];
decision_x6=[0,4];
decision_x7=[0,4];
decision_x8=[0,4];
random_y1=[0,4];
random_y2=[0,4];
random_y3=[0,4];
random_y4=[0,4];
constraint_x2_x1=[
0,1,4.2|
0,2,1.4|
0,3,6.7|
0,4,9.1|
1,0,9.7|
1,2,7.6|
1,3,5.2|
1,4,6.6|
2,0,9.7|
2,1,7.1|
2,3,6.3|
2,4,2|
3,0,8.9|
3,1,3.3|
3,2,5.6|
3,4,2.8|
4,0,2.1|
4,1,8.1|
4,2,3.5|
4,3,7.6|
];
constraint_x3_x1=[
0,1,9.1|
0,2,9.8|
0,3,9.2|
0,4,1.8|
1,0,0.42|
1,2,7.4|
1,3,3.4|
1,4,2.4|
2,0,3.4|
2,1,3.8|
2,3,7.3|
2,4,3.5|
3,0,6.8|
3,1,7.8|
3,2,5.3|
3,4,3.2|
4,0,5.9|
4,1,2.4|
4,2,3.5|
4,3,8.1|
];
constraint_x4_x3=[
0,1,1.7|
0,2,1|
0,3,4.7|
0,4,7.3|
1,0,9.9|
1,2,1.7|
1,3,2.7|
1,4,9.4|
2,0,9.3|
2,1,9.6|
2,3,3.1|
2,4,2.9|
3,0,6.7|
3,1,8.5|
3,2,7.7|
3,4,5.5|
4,0,8|
4,1,0.29|
4,2,3|
4,3,8.4|
];
constraint_x5_x1=[
0,1,9.3|
0,2,2.8|
0,3,9.2|
0,4,3.4|
1,0,3.8|
1,2,6.6|
1,3,0.92|
1,4,7.7|
2,0,7.8|
2,1,3.4|
2,3,9.6|
2,4,7.2|
3,0,8.3|
3,1,2.9|
3,2,0.81|
3,4,2.4|
4,0,4|
4,1,5.7|
4,2,8.7|
4,3,3|
];
constraint_x6_x3=[
0,1,8.6|
0,2,9.9|
0,3,5.9|
0,4,6.5|
1,0,6.8|
1,2,7.7|
1,3,3.6|
1,4,4.4|
2,0,5.1|
2,1,4|
2,3,3.2|
2,4,3|
3,0,3.6|
3,1,2.2|
3,2,0.2|
3,4,8.1|
4,0,3.3|
4,1,6.1|
4,2,7.2|
4,3,7.6|
];
constraint_x7_x1=[
0,1,9.3|
0,2,3.5|
0,3,8.3|
0,4,9.8|
1,0,9.8|
1,2,6.1|
1,3,3.7|
1,4,2.4|
2,0,3.6|
2,1,0.96|
2,3,4.1|
2,4,7|
3,0,0.84|
3,1,1.7|
3,2,7.7|
3,4,2.8|
4,0,5.6|
4,1,9.9|
4,2,7.3|
4,3,2.5|
];
constraint_x7_x2=[
0,1,5.4|
0,2,2.4|
0,3,8.1|
0,4,6.6|
1,0,8.9|
1,2,5.3|
1,3,4|
1,4,9.7|
2,0,2.5|
2,1,9|
2,3,5.3|
2,4,4.2|
3,0,7.7|
3,1,2.6|
3,2,7.9|
3,4,5.1|
4,0,5.5|
4,1,6.4|
4,2,9.8|
4,3,9.7|
];
constraint_x7_x5=[
0,1,0.13|
0,2,7.3|
0,3,6.3|
0,4,2.1|
1,0,5.5|
1,2,7.6|
1,3,1.1|
1,4,9.8|
2,0,3.9|
2,1,6.8|
2,3,1.3|
2,4,5.1|
3,0,8.1|
3,1,7.6|
3,2,9.6|
3,4,4.7|
4,0,5.8|
4,1,9.7|
4,2,9.8|
4,3,5.3|
];
constraint_x7_x6=[
0,1,8.5|
0,2,5.3|
0,3,3.4|
0,4,8|
1,0,2.4|
1,2,8|
1,3,6.9|
1,4,8.7|
2,0,8.4|
2,1,2.8|
2,3,4.2|
2,4,2|
3,0,0.39|
3,1,7.2|
3,2,2.6|
3,4,0.68|
4,0,1.4|
4,1,8.4|
4,2,2.6|
4,3,4.6|
];
constraint_x8_x2=[
0,1,6.7|
0,2,1.5|
0,3,4.7|
0,4,7.6|
1,0,3.9|
1,2,1.9|
1,3,7|
1,4,9.5|
2,0,3.1|
2,1,4.6|
2,3,5.7|
2,4,5.3|
3,0,8.6|
3,1,5.4|
3,2,6.8|
3,4,4.8|
4,0,6.5|
4,1,0.54|
4,2,8.7|
4,3,1.4|
];
constraint_x8_x3=[
0,1,2.9|
0,2,4.3|
0,3,2.8|
0,4,1.7|
1,0,2.1|
1,2,8|
1,3,4.6|
1,4,9.2|
2,0,7.4|
2,1,7|
2,3,0.98|
2,4,0.96|
3,0,2.4|
3,1,0.9|
3,2,7.5|
3,4,1.7|
4,0,3.9|
4,1,3.3|
4,2,2.5|
4,3,6.7|
];
constraint_x8_x4=[
0,1,6.1|
0,2,5|
0,3,4.8|
0,4,6.2|
1,0,8.8|
1,2,4.9|
1,3,1.8|
1,4,4.8|
2,0,7.8|
2,1,2|
2,3,0.65|
2,4,5.9|
3,0,5.8|
3,1,0.14|
3,2,8.3|
3,4,6.3|
4,0,4.8|
4,1,3.5|
4,2,6.1|
4,3,9.3|
];
constraint_x8_x5=[
0,1,7.1|
0,2,7.4|
0,3,2.9|
0,4,6.8|
1,0,5.3|
1,2,1.2|
1,3,0.2|
1,4,4.5|
2,0,7.8|
2,1,8|
2,3,4.3|
2,4,2.9|
3,0,2|
3,1,1.2|
3,2,5.8|
3,4,6.3|
4,0,0.79|
4,1,9|
4,2,9.6|
4,3,4.6|
];
constraint_x8_x6=[
0,1,4.2|
0,2,9.8|
0,3,4.6|
0,4,5.9|
1,0,9.6|
1,2,7.9|
1,3,7.1|
1,4,3.2|
2,0,7.2|
2,1,1.1|
2,3,9.6|
2,4,9.3|
3,0,1.8|
3,1,2.3|
3,2,2.7|
3,4,7|
4,0,8.1|
4,1,6.1|
4,2,7.2|
4,3,6.5|
];
constraint_x1_y1=[
0,0,8|
0,1,7|
0,2,6.8|
0,3,1.4|
0,4,7|
1,0,5.8|
1,1,3.5|
1,2,4.8|
1,3,5.5|
1,4,1.2|
2,0,7.2|
2,1,3.7|
2,2,4.5|
2,3,2.8|
2,4,6.5|
3,0,5.7|
3,1,9.6|
3,2,1.7|
3,3,3.9|
3,4,2.4|
4,0,4.5|
4,1,8.5|
4,2,8.7|
4,3,3.9|
4,4,9.8|
];
constraint_x2_y2=[
0,0,0.84|
0,1,5.6|
0,2,1.4|
0,3,8.8|
0,4,9.4|
1,0,6.8|
1,1,1.4|
1,2,8.1|
1,3,8.1|
1,4,8.6|
2,0,4.6|
2,1,4.7|
2,2,6.8|
2,3,9.4|
2,4,5.9|
3,0,1.6|
3,1,6.3|
3,2,8|
3,3,9.7|
3,4,4.7|
4,0,7.8|
4,1,1.8|
4,2,7.4|
4,3,5.4|
4,4,8.5|
];
constraint_x3_y3=[
0,0,4.6|
0,1,2.3|
0,2,1.4|
0,3,1.1|
0,4,3.8|
1,0,0.97|
1,1,3.8|
1,2,7.3|
1,3,7.8|
1,4,8.9|
2,0,9.6|
2,1,3.7|
2,2,2.2|
2,3,8.7|
2,4,4.5|
3,0,6.4|
3,1,0.99|
3,2,4.3|
3,3,8.5|
3,4,1.2|
4,0,1|
4,1,6|
4,2,9.4|
4,3,2.9|
4,4,9.5|
];
constraint_x4_y4=[
0,0,3.6|
0,1,8.1|
0,2,7.7|
0,3,2.5|
0,4,0.9|
1,0,3.9|
1,1,0.39|
1,2,8|
1,3,3.3|
1,4,1.2|
2,0,6.4|
2,1,8.5|
2,2,4|
2,3,4.7|
2,4,4.4|
3,0,6|
3,1,3.2|
3,2,3.8|
3,3,9.5|
3,4,2.3|
4,0,9.2|
4,1,2.4|
4,2,2.1|
4,3,1.5|
4,4,2.8|
];
initial_distribution_y1=[0.026,0.022,0.25,0.34,0.37];
initial_distribution_y2=[0.21,0.13,0.13,0.27,0.27];
initial_distribution_y3=[0.22,0.39,0.17,0.17,0.052];
initial_distribution_y4=[0.22,0.33,0.12,0.26,0.06];
transition_y1=[
0.25,0.19,0.09,0.21,0.26|
0.26,0.059,0.25,0.24,0.2|
0.033,0.26,0.22,0.27,0.22|
0.19,0.23,0.15,0.16,0.26|
0.074,0.06,0.25,0.56,0.057|
];
transition_y2=[
0.027,0.25,0.016,0.29,0.42|
0.3,0.19,0.015,0.12,0.37|
0.2,0.2,0.16,0.25,0.18|
0.19,0.35,0.34,0.045,0.068|
0.28,0.2,0.15,0.34,0.036|
];
transition_y3=[
0.19,0.1,0.13,0.34,0.24|
0.28,0.13,0.24,0.22,0.12|
0.17,0.29,0.23,0.12,0.19|
0.19,0.21,0.15,0.18,0.26|
0.23,0.13,0.32,0.11,0.22|
];
transition_y4=[
0.095,0.35,0.33,0.02,0.21|
0.26,0.048,0.49,0.096,0.11|
0.22,0.22,0.19,0.33,0.046|
0.35,0.15,0.032,0.051,0.41|
0.19,0.27,0.29,0.17,0.087|
];
